  6	42
 14
  0	 26	 39	 36	 68	 18	 81	 33	 60	 20	 62	 75	 78	 85	
 16
  0	 40	 25	  5	  8	 67	 50	 47	 82	 19	 13	 61	 21	 55	 63	 85	
 20
  0	 32	  3	 45	 28	 70	 74	 14	 30	 56	 10	 72	 24	 12	 66	 11	 52	 54	 53	 85	
 14
  0	  9	  4	 23	 51	 65	 46	  1	 43	  2	 27	 69	 44	 85	
 12
  0	 17	 42	 38	 80	 84	 41	 59	 83	 29	 71	 85	
 20
  0	 35	  7	 37	  6	 49	 77	 79	 31	 48	 22	 15	 73	 57	 16	 58	 34	 76	 64	 85	
